
Gurobi 10.0.1 (linux64) logging started Sun Nov 26 15:44:59 2023

Set parameter LogFile to value "ArtificialInstance/ExperimentV2/S3T4K1/BaRo/gurobi91.txt"
Gurobi Optimizer version 10.0.1 build v10.0.1rc0 (linux64)

CPU model: AMD EPYC 7H12 64-Core Processor, instruction set [SSE2|AVX|AVX2]
Thread count: 128 physical cores, 128 logical processors, using up to 32 threads

Academic license 656792 - for non-commercial use only - registered to b.___@student.vu.nl
Optimize a model with 1503 rows, 2241 columns and 7683 nonzeros
Model fingerprint: 0xa63d12bb
Variable types: 1 continuous, 2240 integer (2240 binary)
Coefficient statistics:
  Matrix range     [1e+00, 4e+01]
  Objective range  [1e+00, 2e+01]
  Bounds range     [1e+00, 1e+00]
  RHS range        [1e+00, 1e+00]
Found heuristic solution: objective 422.0868008
Presolve time: 0.01s
Presolved: 1503 rows, 2241 columns, 7683 nonzeros
Variable types: 1 continuous, 2240 integer (2240 binary)

Root relaxation: objective 3.944588e+01, 1760 iterations, 0.05 seconds (0.05 work units)

    Nodes    |    Current Node    |     Objective Bounds      |     Work
 Expl Unexpl |  Obj  Depth IntInf | Incumbent    BestBd   Gap | It/Node Time

     0     0   39.44588    0  288  422.08680   39.44588  90.7%     -    0s
H    0     0                     103.2624903   39.44588  61.8%     -    0s
H    0     0                      78.8917517   39.44588  50.0%     -    0s
H    0     0                      70.4465763   44.62930  36.6%     -    0s
     0     0   45.19526    0  418   70.44658   45.19526  35.8%     -    0s
H    0     0                      61.9686488   45.19526  27.1%     -    0s
H    0     0                      54.6270949   49.23664  9.87%     -    0s
     0     0   49.23664    0  377   54.62709   49.23664  9.87%     -    0s
     0     0   50.52213    0  374   54.62709   50.52213  7.51%     -    0s
H    0     0                      53.8336130   50.52213  6.15%     -    0s
     0     0   50.52361    0  374   53.83361   50.52361  6.15%     -    0s
     0     0   51.04079    0  536   53.83361   51.04079  5.19%     -    0s
     0     0   51.04079    0  283   53.83361   51.04079  5.19%     -    0s
     0     0   51.04079    0  143   53.83361   51.04079  5.19%     -    0s
     0     0   51.23183    0  384   53.83361   51.23183  4.83%     -    0s
     0     0   51.26697    0  479   53.83361   51.26697  4.77%     -    0s
     0     0   51.27096    0  465   53.83361   51.27096  4.76%     -    0s
     0     0   51.86345    0  444   53.83361   51.86345  3.66%     -    1s
     0     0   51.87037    0  447   53.83361   51.87037  3.65%     -    1s
     0     0   51.87037    0  448   53.83361   51.87037  3.65%     -    1s
H    0     0                      52.8119552   51.87037  1.78%     -    1s

Cutting planes:
  Gomory: 5
  Zero half: 85
  RLT: 23

Explored 1 nodes (9294 simplex iterations) in 1.30 seconds (0.67 work units)
Thread count was 32 (of 128 available processors)

Solution count 8: 52.812 53.8336 54.6271 ... 422.087

Optimal solution found (tolerance 1.00e-04)
Best objective 5.281195523457e+01, best bound 5.281195523457e+01, gap 0.0000%
